Instance: E135-07f.dat
Class:  1
  134 --- number of customers (no depot)
    7 --- number of vehicles
  134 --- number of items
Capacity - height - width of vehicles
  2210     40     20
Node - x - y - demand
    0    -6.0    15.0     0.0
    1     3.2     5.1    30.0
    2    24.6     8.3   226.0
    3    23.3     1.3    37.0
    4    27.8     8.3    24.0
    5    29.0     8.0    36.0
    6    31.0     8.0     1.0
    7    33.5    10.5    31.0
    8    30.0    10.5    24.0
    9    29.0    10.0    30.0
   10    26.5    11.7    24.0
   11    28.3    14.3    24.0
   12    27.0    14.3    32.0
   13    23.5    19.0    24.0
   14    26.0    20.0    24.0
   15    25.0    20.0    19.0
   16    20.5    19.0    24.0
   17   -20.0    13.0    18.0
   18   -21.0    14.0    36.0
   19   -30.0    30.0   115.0
   20    -5.0    30.0    24.0
   21     1.3    17.8    24.0
   22     1.8    13.8    61.0
   23     1.8    13.1    71.0
   24     2.0    13.6    36.0
   25     4.8    17.0    18.0
   26     7.0    15.0    30.0
   27     9.8    16.6    31.0
   28    11.4    14.5    36.0
   29    14.4    11.3    18.0
   30    11.0    12.0  1004.0
   31     9.3    10.7    18.0
   32     0.6     2.8    34.0
   33   -30.0   -10.0   504.0
   34     2.0     0.0    18.0
   35    14.5     1.0    39.0
   36    15.0     1.8    24.0
   37    17.2     2.4    37.0
   38    17.2     4.2    24.0
   39    18.2     4.4    99.0
   40    20.3     2.1    24.0
   41    22.8     3.1    24.0
   42    23.0     4.0    36.0
   43    20.8     4.0    30.0
   44    20.8     4.0    25.0
   45    18.5     6.4    24.0
   46   -14.0    16.0   122.0
   47    -0.5     6.9   196.0
   48     3.2     2.8   229.0
   49     5.6     1.8    83.0
   50     8.7     2.8    18.0
   51     9.0     3.3    24.0
   52     9.0     3.5   306.0
   53    11.2     3.3    18.0
   54    10.8     4.7    20.0
   55    11.5     4.6    18.0
   56    12.3     4.7    24.0
   57    12.3     5.5    22.0
   58    11.2     6.9    24.0
   59     6.5     9.7    18.0
   60     5.8     8.5    18.0
   61     7.2     6.0    24.0
   62     7.2     4.0    24.0
   63    -4.0    -4.0    30.0
   64    -3.0     1.2    24.0
   65   -40.0    49.0    40.0
   66   -15.0    10.0   166.0
   67   -11.0   -10.0   254.0
   68   -25.0   -20.0   187.0
   69   -25.0   -35.0    94.0
   70   -24.0   -35.0    17.0
   71   -18.0    10.0   285.0
   72    -2.0    10.0    24.0
   73    -4.0     8.0    24.0
   74    -3.0     5.0   205.0
   75     2.1     6.2    23.0
   76    -1.7     3.0    28.0
   77    -3.0     2.0    51.0
   78    -7.0     0.0    49.0
   79    -3.0    -6.0    19.0
   80   -30.0   -11.0   262.0
   81   -62.0   -10.0   120.0
   82    -8.0    30.0   266.0
   83     1.0    60.0   704.0
   84    10.0    52.0    38.0
   85    10.0    52.0    18.0
   86    10.0    51.0    30.0
   87    16.0    29.0    25.0
   88    26.0    21.0    12.0
   89    16.0    21.0    18.0
   90    15.5    19.2    25.0
   91     0.0    16.5    35.0
   92    17.2    14.3    18.0
   93    16.5     7.8    12.0
   94    16.9     7.7    20.0
   95    18.0     2.0  1126.0
   96    16.2     4.0     9.0
   97    15.0     4.0    36.0
   98    15.0     3.0    12.0
   99    14.8     2.4    31.0
  100    14.5     3.0    96.0
  101    13.0     2.6    27.0
  102    11.8     3.0    54.0
  103    12.0     4.0   137.0
  104    12.8     3.6    12.0
  105    13.4     5.5    58.0
  106  -150.0     8.0   206.0
  107  -152.0     1.0   178.0
  108  -152.0     0.0   486.0
  109  -142.0   -31.0    36.0
  110   -78.0   -19.0   261.0
  111   -78.0   -18.0   135.0
  112   -78.0   -17.0   135.0
  113   -80.0   -14.0   373.0
  114  -118.0    22.0   535.0
  115  -107.0    30.0    42.0
  116   -85.0    14.0     9.0
  117   -78.0    15.0   110.0
  118   -15.0    16.0    36.0
  119   -62.0    32.0    18.0
  120  -120.0   -20.0   726.0
  121   -90.0   -22.0   187.0
  122   -79.0   -19.0    23.0
  123   -79.0   -18.5   134.0
  124   -79.0   -18.0    47.0
  125   -78.0   -17.5    51.0
  126   -79.0   -17.0    43.0
  127   -80.0   -17.0    79.0
  128   -80.0   -16.0   112.0
  129   -80.0   -15.0    91.0
  130   -48.0    37.0   232.0
  131   -85.0    15.0   483.0
  132   -62.0    -9.0   828.0
  133   -15.0    -4.0    11.0
  134    -1.0     3.2    12.0
Node - number of items - h - w for each item
    0   0
    1   1    1    1
    2   1    1    1
    3   1    1    1
    4   1    1    1
    5   1    1    1
    6   1    1    1
    7   1    1    1
    8   1    1    1
    9   1    1    1
   10   1    1    1
   11   1    1    1
   12   1    1    1
   13   1    1    1
   14   1    1    1
   15   1    1    1
   16   1    1    1
   17   1    1    1
   18   1    1    1
   19   1    1    1
   20   1    1    1
   21   1    1    1
   22   1    1    1
   23   1    1    1
   24   1    1    1
   25   1    1    1
   26   1    1    1
   27   1    1    1
   28   1    1    1
   29   1    1    1
   30   1    1    1
   31   1    1    1
   32   1    1    1
   33   1    1    1
   34   1    1    1
   35   1    1    1
   36   1    1    1
   37   1    1    1
   38   1    1    1
   39   1    1    1
   40   1    1    1
   41   1    1    1
   42   1    1    1
   43   1    1    1
   44   1    1    1
   45   1    1    1
   46   1    1    1
   47   1    1    1
   48   1    1    1
   49   1    1    1
   50   1    1    1
   51   1    1    1
   52   1    1    1
   53   1    1    1
   54   1    1    1
   55   1    1    1
   56   1    1    1
   57   1    1    1
   58   1    1    1
   59   1    1    1
   60   1    1    1
   61   1    1    1
   62   1    1    1
   63   1    1    1
   64   1    1    1
   65   1    1    1
   66   1    1    1
   67   1    1    1
   68   1    1    1
   69   1    1    1
   70   1    1    1
   71   1    1    1
   72   1    1    1
   73   1    1    1
   74   1    1    1
   75   1    1    1
   76   1    1    1
   77   1    1    1
   78   1    1    1
   79   1    1    1
   80   1    1    1
   81   1    1    1
   82   1    1    1
   83   1    1    1
   84   1    1    1
   85   1    1    1
   86   1    1    1
   87   1    1    1
   88   1    1    1
   89   1    1    1
   90   1    1    1
   91   1    1    1
   92   1    1    1
   93   1    1    1
   94   1    1    1
   95   1    1    1
   96   1    1    1
   97   1    1    1
   98   1    1    1
   99   1    1    1
  100   1    1    1
  101   1    1    1
  102   1    1    1
  103   1    1    1
  104   1    1    1
  105   1    1    1
  106   1    1    1
  107   1    1    1
  108   1    1    1
  109   1    1    1
  110   1    1    1
  111   1    1    1
  112   1    1    1
  113   1    1    1
  114   1    1    1
  115   1    1    1
  116   1    1    1
  117   1    1    1
  118   1    1    1
  119   1    1    1
  120   1    1    1
  121   1    1    1
  122   1    1    1
  123   1    1    1
  124   1    1    1
  125   1    1    1
  126   1    1    1
  127   1    1    1
  128   1    1    1
  129   1    1    1
  130   1    1    1
  131   1    1    1
  132   1    1    1
  133   1    1    1
  134   1    1    1
